Version identifier: 20.1.0.0 | 2020-11-10 | 9bedb6d68
Tried aggregator 2 times.
MIP Presolve eliminated 908 rows and 544 columns.
MIP Presolve modified 1728 coefficients.
Aggregator did 102 substitutions.
Reduced MIP has 696 rows, 561 columns, and 2209 nonzeros.
Reduced MIP has 142 binaries, 419 generals, 0 SOSs, and 0 indicators.
Presolve time = 0.01 sec. (3.75 ticks)
Found incumbent of value 684.000000 after 0.01 sec. (5.77 ticks)
Probing fixed 20 vars, tightened 150 bounds.
Probing time = 0.00 sec. (0.53 ticks)
Tried aggregator 1 time.
Detecting symmetries...
MIP Presolve eliminated 300 rows and 20 columns.
MIP Presolve modified 32 coefficients.
Reduced MIP has 396 rows, 541 columns, and 1289 nonzeros.
Reduced MIP has 218 binaries, 323 generals, 0 SOSs, and 0 indicators.
Presolve time = 0.00 sec. (1.46 ticks)
Probing time = 0.00 sec. (0.13 ticks)
Clique table members: 41.
MIP emphasis: balance optimality and feasibility.
MIP search method: dynamic search.
Parallel mode: deterministic, using up to 24 threads.
Root relaxation solution time = 0.00 sec. (0.84 ticks)

        Nodes                                         Cuts/
   Node  Left     Objective  IInf  Best Integer    Best Bound    ItCnt     Gap

*     0+    0                          684.0000        0.0000           100.00%
*     0+    0                           18.0000        0.0000           100.00%
      0     0        0.0000    30       18.0000        0.0000      122  100.00%
*     0+    0                            8.0000        0.0000           100.00%
      0     0        0.4167    39        8.0000      Cuts: 66      268   94.79%
      0     0        1.0812   109        8.0000      Cuts: 49      405   86.49%
      0     0        1.1364    97        8.0000      Cuts: 34      426   85.80%
*     0+    0                            7.0000        1.1364            83.77%
      0     0        1.1364   113        7.0000      Cuts: 20      446   83.77%
      0     0        1.1429   102        7.0000      Cuts: 18      461   83.67%
      0     0        1.1613   103        7.0000      Cuts: 26      475   83.41%
      0     0        1.3333    67        7.0000      Cuts: 14      501   80.95%
      0     0        1.3333    70        7.0000      Cuts: 21      556   80.95%
*     0+    0                            5.0000        1.3333            73.33%
*     0+    0                            4.0000        1.3333            66.67%
      0     0        cutoff              4.0000        4.0000      556    0.00%
Elapsed time = 0.19 sec. (46.12 ticks, tree = 0.01 MB, solutions = 6)

Cover cuts applied:  2
Implied bound cuts applied:  11
Flow cuts applied:  1
Mixed integer rounding cuts applied:  7
Zero-half cuts applied:  32
Lift and project cuts applied:  1
Gomory fractional cuts applied:  9

Root node processing (before b&c):
  Real time             =    0.19 sec. (46.20 ticks)
Parallel b&c, 24 threads:
  Real time             =    0.00 sec. (0.00 ticks)
  Sync time (average)   =    0.00 sec.
  Wait time (average)   =    0.00 sec.
                          ------------
Total (root+branch&cut) =    0.19 sec. (46.20 ticks)

Solution status = Optimal
Solution LB = 4
Solution UB = 4
Runtime = 0.200978 seconds
	Command being timed: "/home/min/git_repos/CS598MEBProject/CNT-ILP/build/cnt -s 2 ./output/k6_n20/simC_c1_k6_n20_u1_s2_del02.input-left.cnp"
	User time (seconds): 3.04
	System time (seconds): 0.02
	Percent of CPU this job got: 1326%
	Elapsed (wall clock) time (h:mm:ss or m:ss): 0:00.23
	Average shared text size (kbytes): 0
	Average unshared data size (kbytes): 0
	Average stack size (kbytes): 0
	Average total size (kbytes): 0
	Maximum resident set size (kbytes): 55684
	Average resident set size (kbytes): 0
	Major (requiring I/O) page faults: 0
	Minor (reclaiming a frame) page faults: 10952
	Voluntary context switches: 2392
	Involuntary context switches: 312
	Swaps: 0
	File system inputs: 0
	File system outputs: 16
	Socket messages sent: 0
	Socket messages received: 0
	Signals delivered: 0
	Page size (bytes): 4096
	Exit status: 0
